NAME : morphed20-5-26
COMMENT : Generated using the function morphInstances from the R-package netgen (Bossek,2015) - Number of clusters: 5 Alpha: 0.5
TYPE : TSP
DIMENSION : 20
EDGE_WEIGHT_TYPE : EUC_2D
NODE_COORD_SECTION
1 6.8064416932 87.2611229882
2 23.5854515128 67.0062693913
3 90.8096607149 34.4486703963
4 80.4992465205 31.397913149
5 31.0518212717 33.1526330522
6 31.0944028021 76.8964041507
7 62.5021157568 95.6589486712
8 75.1180549844 58.9736312497
9 35.7882784476 50.2057884613
10 67.6187976717 40.5084466061
11 48.1623259523 88.0001026625
12 19.1949020499 52.2983738726
13 53.4730685804 45.2107882592
14 12.4842162471 19.7438012225
15 85.1322215819 14.0877400497
16 32.2814572675 99.1273774354
17 68.3175012924 3.897434478
18 38.0358785382 31.5279583217
19 66.88602394 62.3996123179
20 62.634521847 92.2864855801
EOF
